# Solution for model MIP
# Objective value = -2.3337464444723602e+02
team_t0_s0 1
team_t1_s0 0
team_t2_s0 1
team_t3_s0 0
team_t4_s0 1
team_t5_s0 1
team_t6_s0 0
team_t7_s0 0
team_t8_s0 0
team_t9_s0 0
team_t10_s0 1
team_t0_s1 1
team_t1_s1 0
team_t2_s1 1
team_t3_s1 0
team_t4_s1 1
team_t5_s1 1
team_t6_s1 0
team_t7_s1 0
team_t8_s1 0
team_t9_s1 0
team_t10_s1 1
team_t0_s2 1
team_t1_s2 0
team_t2_s2 0
team_t3_s2 0
team_t4_s2 1
team_t5_s2 1
team_t6_s2 0
team_t7_s2 0
team_t8_s2 0
team_t9_s2 0
team_t10_s2 1
team_t0_s3 0
team_t1_s3 1
team_t2_s3 1
team_t3_s3 0
team_t4_s3 1
team_t5_s3 1
team_t6_s3 0
team_t7_s3 0
team_t8_s3 0
team_t9_s3 0
team_t10_s3 0
q_s0 2.3395702967514242e-01
q_s1 2.6074317485922782e-01
q_s2 2.3984054833702445e-01
q_s3 2.6545924712860536e-01
theta -1.9740036720037682e+02
z_w0_k0_m0 9.1072368774717216e-01
z_w0_k0_m1 8.6871340525295615e-01
z_w0_k1_m0 9.1531999038020151e-01
z_w0_k1_m1 4.6281550926792936e-01
z_w0_k2_m0 8.6285877637584085e-01
z_w0_k2_m1 8.6733255628543848e-01
z_w1_k0_m0 8.6648392177294986e-01
z_w1_k0_m1 8.6860048545306545e-01
z_w1_k1_m0 9.1531999038020151e-01
z_w1_k1_m1 4.6281550926792936e-01
z_w1_k2_m0 8.7453720763516263e-01
z_w1_k2_m1 8.6423159903692737e-01
z_w2_k0_m0 8.6625991382088297e-01
z_w2_k0_m1 8.6625991382088285e-01
z_w2_k1_m0 9.3447621330135555e-01
z_w2_k1_m1 8.9870866736692245e-01
z_w2_k2_m0 8.6098565690114315e-01
z_w2_k2_m1 8.6268196784026374e-01
z_w3_k0_m0 9.1531999038020151e-01
z_w3_k0_m1 4.6281550926792936e-01
z_w3_k1_m0 8.9761391742719032e-01
z_w3_k1_m1 9.3410472595344241e-01
z_w3_k2_m0 9.1531999038020151e-01
z_w3_k2_m1 4.6281550926792936e-01
z_w4_k0_m0 9.1531999038020151e-01
z_w4_k0_m1 4.6281550926792936e-01
z_w4_k1_m0 9.3447621330135555e-01
z_w4_k1_m1 8.9870866736692245e-01
z_w4_k2_m0 9.1531999038020151e-01
z_w4_k2_m1 4.6281550926792936e-01
pi_w0_t0_k0 1.7131467738358889e-02
pi_w0_t0_k1 1
pi_w0_t0_k2 0
pi_w0_t1_k0 0
pi_w0_t1_k1 0
pi_w0_t1_k2 0
pi_w0_t2_k0 0
pi_w0_t2_k1 0
pi_w0_t2_k2 6.3144290638539990e-02
pi_w0_t3_k0 0
pi_w0_t3_k1 0
pi_w0_t3_k2 0
pi_w0_t4_k0 0
pi_w0_t4_k1 0
pi_w0_t4_k2 0
pi_w0_t5_k0 9.5780170765359007e-01
pi_w0_t5_k1 0
pi_w0_t5_k2 9.0807484356101709e-01
pi_w0_t6_k0 0
pi_w0_t6_k1 0
pi_w0_t6_k2 0
pi_w0_t7_k0 0
pi_w0_t7_k1 0
pi_w0_t7_k2 0
pi_w0_t8_k0 0
pi_w0_t8_k1 0
pi_w0_t8_k2 0
pi_w0_t9_k0 0
pi_w0_t9_k1 0
pi_w0_t9_k2 0
pi_w0_t10_k0 2.5066824608050972e-02
pi_w0_t10_k1 0
pi_w0_t10_k2 2.8780865800442933e-02
pi_w1_t0_k0 1.1992027416851221e-01
pi_w1_t0_k1 1
pi_w1_t0_k2 2.1077209880643365e-03
pi_w1_t1_k0 7.3738679757946013e-02
pi_w1_t1_k1 0
pi_w1_t1_k2 0
pi_w1_t2_k0 0
pi_w1_t2_k1 0
pi_w1_t2_k2 0
pi_w1_t3_k0 0
pi_w1_t3_k1 0
pi_w1_t3_k2 0
pi_w1_t4_k0 6.2936821465447157e-01
pi_w1_t4_k1 0
pi_w1_t4_k2 5.2346157974990504e-01
pi_w1_t5_k0 1.7697283141907022e-01
pi_w1_t5_k1 0
pi_w1_t5_k2 4.1536150692359936e-01
pi_w1_t6_k0 0
pi_w1_t6_k1 0
pi_w1_t6_k2 0
pi_w1_t7_k0 0
pi_w1_t7_k1 0
pi_w1_t7_k2 0
pi_w1_t8_k0 0
pi_w1_t8_k1 0
pi_w1_t8_k2 0
pi_w1_t9_k0 0
pi_w1_t9_k1 0
pi_w1_t9_k2 0
pi_w1_t10_k0 0
pi_w1_t10_k1 0
pi_w1_t10_k2 5.9069192338431262e-02
pi_w2_t0_k0 5.5459334918514513e-02
pi_w2_t0_k1 0
pi_w2_t0_k2 6.0233927664549519e-02
pi_w2_t1_k0 0
pi_w2_t1_k1 0
pi_w2_t1_k2 0
pi_w2_t2_k0 9.4815699948810117e-02
pi_w2_t2_k1 0
pi_w2_t2_k2 1.0068841151494398e-01
pi_w2_t3_k0 0
pi_w2_t3_k1 0
pi_w2_t3_k2 0
pi_w2_t4_k0 0
pi_w2_t4_k1 0
pi_w2_t4_k2 0
pi_w2_t5_k0 8.4972496513267537e-01
pi_w2_t5_k1 1
pi_w2_t5_k2 8.3798249849933293e-01
pi_w2_t6_k0 0
pi_w2_t6_k1 0
pi_w2_t6_k2 0
pi_w2_t7_k0 0
pi_w2_t7_k1 0
pi_w2_t7_k2 0
pi_w2_t8_k0 0
pi_w2_t8_k1 0
pi_w2_t8_k2 0
pi_w2_t9_k0 0
pi_w2_t9_k1 0
pi_w2_t9_k2 0
pi_w2_t10_k0 0
pi_w2_t10_k1 0
pi_w2_t10_k2 1.0951623211735706e-03
pi_w3_t0_k0 1
pi_w3_t0_k1 0
pi_w3_t0_k2 1
pi_w3_t1_k0 0
pi_w3_t1_k1 3.4625119190687781e-02
pi_w3_t1_k2 0
pi_w3_t2_k0 0
pi_w3_t2_k1 0
pi_w3_t2_k2 0
pi_w3_t3_k0 0
pi_w3_t3_k1 0
pi_w3_t3_k2 0
pi_w3_t4_k0 0
pi_w3_t4_k1 9.6537488080931222e-01
pi_w3_t4_k2 0
pi_w3_t5_k0 0
pi_w3_t5_k1 0
pi_w3_t5_k2 0
pi_w3_t6_k0 0
pi_w3_t6_k1 0
pi_w3_t6_k2 0
pi_w3_t7_k0 0
pi_w3_t7_k1 0
pi_w3_t7_k2 0
pi_w3_t8_k0 0
pi_w3_t8_k1 0
pi_w3_t8_k2 0
pi_w3_t9_k0 0
pi_w3_t9_k1 0
pi_w3_t9_k2 0
pi_w3_t10_k0 0
pi_w3_t10_k1 0
pi_w3_t10_k2 0
pi_w4_t0_k0 1
pi_w4_t0_k1 0
pi_w4_t0_k2 1
pi_w4_t1_k0 0
pi_w4_t1_k1 0
pi_w4_t1_k2 0
pi_w4_t2_k0 0
pi_w4_t2_k1 0
pi_w4_t2_k2 0
pi_w4_t3_k0 0
pi_w4_t3_k1 0
pi_w4_t3_k2 0
pi_w4_t4_k0 0
pi_w4_t4_k1 0
pi_w4_t4_k2 0
pi_w4_t5_k0 0
pi_w4_t5_k1 1
pi_w4_t5_k2 0
pi_w4_t6_k0 0
pi_w4_t6_k1 0
pi_w4_t6_k2 0
pi_w4_t7_k0 0
pi_w4_t7_k1 0
pi_w4_t7_k2 0
pi_w4_t8_k0 0
pi_w4_t8_k1 0
pi_w4_t8_k2 0
pi_w4_t9_k0 0
pi_w4_t9_k1 0
pi_w4_t9_k2 0
pi_w4_t10_k0 0
pi_w4_t10_k1 0
pi_w4_t10_k2 0
n_w0_t0_k0 4.7968109667404890e-01
n_w0_t0_k1 0
n_w0_t0_k2 0
n_w0_t1_k0 0
n_w0_t1_k1 0
n_w0_t1_k2 0
n_w0_t2_k0 0
n_w0_t2_k1 0
n_w0_t2_k2 1.5786072659634998e+00
n_w0_t3_k0 0
n_w0_t3_k1 0
n_w0_t3_k2 0
n_w0_t4_k0 0
n_w0_t4_k1 0
n_w0_t4_k2 0
n_w0_t5_k0 2.6818447814300523e+01
n_w0_t5_k1 0
n_w0_t5_k2 2.2701871089025428e+01
n_w0_t6_k0 0
n_w0_t6_k1 0
n_w0_t6_k2 0
n_w0_t7_k0 0
n_w0_t7_k1 0
n_w0_t7_k2 0
n_w0_t8_k0 0
n_w0_t8_k1 0
n_w0_t8_k2 0
n_w0_t9_k0 0
n_w0_t9_k1 0
n_w0_t9_k2 0
n_w0_t10_k0 7.0187108902542716e-01
n_w0_t10_k1 0
n_w0_t10_k2 7.1952164501107330e-01
n_w1_t0_k0 2.1585649350332199e+00
n_w1_t0_k1 0
n_w1_t0_k2 2.3395702967514134e-01
n_w1_t1_k0 1.3272962356430282e+00
n_w1_t1_k1 0
n_w1_t1_k2 0
n_w1_t2_k0 0
n_w1_t2_k1 0
n_w1_t2_k2 0
n_w1_t3_k0 0
n_w1_t3_k1 0
n_w1_t3_k2 0
n_w1_t4_k0 1.1328627863780490e+01
n_w1_t4_k1 0
n_w1_t4_k2 5.8104235352239463e+01
n_w1_t5_k0 3.1855109655432643e+00
n_w1_t5_k1 0
n_w1_t5_k2 4.6105127268519531e+01
n_w1_t6_k0 0
n_w1_t6_k1 0
n_w1_t6_k2 0
n_w1_t7_k0 0
n_w1_t7_k1 0
n_w1_t7_k2 0
n_w1_t8_k0 0
n_w1_t8_k1 0
n_w1_t8_k2 0
n_w1_t9_k0 0
n_w1_t9_k1 0
n_w1_t9_k2 0
n_w1_t10_k0 0
n_w1_t10_k1 0
n_w1_t10_k2 6.5566803495658696e+00
n_w2_t0_k0 1.2201053682073193e+00
n_w2_t0_k1 0
n_w2_t0_k2 1.3191230158536344e+01
n_w2_t1_k0 0
n_w2_t1_k1 0
n_w2_t1_k2 0
n_w2_t2_k0 2.0859453988738226e+00
n_w2_t2_k1 0
n_w2_t2_k2 2.2050762121772731e+01
n_w2_t3_k0 0
n_w2_t3_k1 0
n_w2_t3_k2 0
n_w2_t4_k0 0
n_w2_t4_k1 0
n_w2_t4_k2 0
n_w2_t5_k0 1.8693949232918857e+01
n_w2_t5_k1 235
n_w2_t5_k2 1.8351816717135392e+02
n_w2_t6_k0 0
n_w2_t6_k1 0
n_w2_t6_k2 0
n_w2_t7_k0 0
n_w2_t7_k1 0
n_w2_t7_k2 0
n_w2_t8_k0 0
n_w2_t8_k1 0
n_w2_t8_k2 0
n_w2_t9_k0 0
n_w2_t9_k1 0
n_w2_t9_k2 0
n_w2_t10_k0 0
n_w2_t10_k1 0
n_w2_t10_k2 2.3984054833701196e-01
n_w3_t0_k0 0
n_w3_t0_k1 0
n_w3_t0_k2 0
n_w3_t1_k0 0
n_w3_t1_k1 7.9637774138581896e-01
n_w3_t1_k2 0
n_w3_t2_k0 0
n_w3_t2_k1 0
n_w3_t2_k2 0
n_w3_t3_k0 0
n_w3_t3_k1 0
n_w3_t3_k2 0
n_w3_t4_k0 0
n_w3_t4_k1 2.2203622258614182e+01
n_w3_t4_k2 0
n_w3_t5_k0 0
n_w3_t5_k1 0
n_w3_t5_k2 0
n_w3_t6_k0 0
n_w3_t6_k1 0
n_w3_t6_k2 0
n_w3_t7_k0 0
n_w3_t7_k1 0
n_w3_t7_k2 0
n_w3_t8_k0 0
n_w3_t8_k1 0
n_w3_t8_k2 0
n_w3_t9_k0 0
n_w3_t9_k1 0
n_w3_t9_k2 0
n_w3_t10_k0 0
n_w3_t10_k1 0
n_w3_t10_k2 0
n_w4_t0_k0 0
n_w4_t0_k1 0
n_w4_t0_k2 0
n_w4_t1_k0 0
n_w4_t1_k1 0
n_w4_t1_k2 0
n_w4_t2_k0 0
n_w4_t2_k1 0
n_w4_t2_k2 0
n_w4_t3_k0 0
n_w4_t3_k1 0
n_w4_t3_k2 0
n_w4_t4_k0 0
n_w4_t4_k1 0
n_w4_t4_k2 0
n_w4_t5_k0 0
n_w4_t5_k1 286
n_w4_t5_k2 0
n_w4_t6_k0 0
n_w4_t6_k1 0
n_w4_t6_k2 0
n_w4_t7_k0 0
n_w4_t7_k1 0
n_w4_t7_k2 0
n_w4_t8_k0 0
n_w4_t8_k1 0
n_w4_t8_k2 0
n_w4_t9_k0 0
n_w4_t9_k1 0
n_w4_t9_k2 0
n_w4_t10_k0 0
n_w4_t10_k1 0
n_w4_t10_k2 0
ni_s0_w0_t0_k0 0
ni_s0_w0_t0_k1 0
ni_s0_w0_t0_k2 0
ni_s0_w0_t1_k0 0
ni_s0_w0_t1_k1 0
ni_s0_w0_t1_k2 0
ni_s0_w0_t2_k0 0
ni_s0_w0_t2_k1 0
ni_s0_w0_t2_k2 0
ni_s0_w0_t3_k0 0
ni_s0_w0_t3_k1 0
ni_s0_w0_t3_k2 0
ni_s0_w0_t4_k0 0
ni_s0_w0_t4_k1 0
ni_s0_w0_t4_k2 0
ni_s0_w0_t5_k0 0
ni_s0_w0_t5_k1 0
ni_s0_w0_t5_k2 1
ni_s0_w0_t6_k0 0
ni_s0_w0_t6_k1 0
ni_s0_w0_t6_k2 0
ni_s0_w0_t7_k0 0
ni_s0_w0_t7_k1 0
ni_s0_w0_t7_k2 0
ni_s0_w0_t8_k0 0
ni_s0_w0_t8_k1 0
ni_s0_w0_t8_k2 0
ni_s0_w0_t9_k0 0
ni_s0_w0_t9_k1 0
ni_s0_w0_t9_k2 0
ni_s0_w0_t10_k0 1
ni_s0_w0_t10_k1 0
ni_s0_w0_t10_k2 0
ni_s0_w1_t0_k0 0
ni_s0_w1_t0_k1 0
ni_s0_w1_t0_k2 1
ni_s0_w1_t1_k0 0
ni_s0_w1_t1_k1 0
ni_s0_w1_t1_k2 0
ni_s0_w1_t2_k0 0
ni_s0_w1_t2_k1 0
ni_s0_w1_t2_k2 0
ni_s0_w1_t3_k0 0
ni_s0_w1_t3_k1 0
ni_s0_w1_t3_k2 0
ni_s0_w1_t4_k0 0
ni_s0_w1_t4_k1 0
ni_s0_w1_t4_k2 0
ni_s0_w1_t5_k0 0
ni_s0_w1_t5_k1 0
ni_s0_w1_t5_k2 0
ni_s0_w1_t6_k0 0
ni_s0_w1_t6_k1 0
ni_s0_w1_t6_k2 0
ni_s0_w1_t7_k0 0
ni_s0_w1_t7_k1 0
ni_s0_w1_t7_k2 0
ni_s0_w1_t8_k0 0
ni_s0_w1_t8_k1 0
ni_s0_w1_t8_k2 0
ni_s0_w1_t9_k0 0
ni_s0_w1_t9_k1 0
ni_s0_w1_t9_k2 0
ni_s0_w1_t10_k0 0
ni_s0_w1_t10_k1 0
ni_s0_w1_t10_k2 0
ni_s0_w2_t0_k0 0
ni_s0_w2_t0_k1 0
ni_s0_w2_t0_k2 0
ni_s0_w2_t1_k0 0
ni_s0_w2_t1_k1 0
ni_s0_w2_t1_k2 0
ni_s0_w2_t2_k0 0
ni_s0_w2_t2_k1 0
ni_s0_w2_t2_k2 1
ni_s0_w2_t3_k0 0
ni_s0_w2_t3_k1 0
ni_s0_w2_t3_k2 0
ni_s0_w2_t4_k0 0
ni_s0_w2_t4_k1 0
ni_s0_w2_t4_k2 0
ni_s0_w2_t5_k0 0
ni_s0_w2_t5_k1 0
ni_s0_w2_t5_k2 0
ni_s0_w2_t6_k0 0
ni_s0_w2_t6_k1 0
ni_s0_w2_t6_k2 0
ni_s0_w2_t7_k0 0
ni_s0_w2_t7_k1 0
ni_s0_w2_t7_k2 0
ni_s0_w2_t8_k0 0
ni_s0_w2_t8_k1 0
ni_s0_w2_t8_k2 0
ni_s0_w2_t9_k0 0
ni_s0_w2_t9_k1 0
ni_s0_w2_t9_k2 0
ni_s0_w2_t10_k0 0
ni_s0_w2_t10_k1 0
ni_s0_w2_t10_k2 0
ni_s0_w3_t0_k0 0
ni_s0_w3_t0_k1 0
ni_s0_w3_t0_k2 0
ni_s0_w3_t1_k0 0
ni_s0_w3_t1_k1 0
ni_s0_w3_t1_k2 0
ni_s0_w3_t2_k0 0
ni_s0_w3_t2_k1 0
ni_s0_w3_t2_k2 0
ni_s0_w3_t3_k0 0
ni_s0_w3_t3_k1 0
ni_s0_w3_t3_k2 0
ni_s0_w3_t4_k0 0
ni_s0_w3_t4_k1 0
ni_s0_w3_t4_k2 0
ni_s0_w3_t5_k0 0
ni_s0_w3_t5_k1 0
ni_s0_w3_t5_k2 0
ni_s0_w3_t6_k0 0
ni_s0_w3_t6_k1 0
ni_s0_w3_t6_k2 0
ni_s0_w3_t7_k0 0
ni_s0_w3_t7_k1 0
ni_s0_w3_t7_k2 0
ni_s0_w3_t8_k0 0
ni_s0_w3_t8_k1 0
ni_s0_w3_t8_k2 0
ni_s0_w3_t9_k0 0
ni_s0_w3_t9_k1 0
ni_s0_w3_t9_k2 0
ni_s0_w3_t10_k0 0
ni_s0_w3_t10_k1 0
ni_s0_w3_t10_k2 0
ni_s0_w4_t0_k0 0
ni_s0_w4_t0_k1 0
ni_s0_w4_t0_k2 0
ni_s0_w4_t1_k0 0
ni_s0_w4_t1_k1 0
ni_s0_w4_t1_k2 0
ni_s0_w4_t2_k0 0
ni_s0_w4_t2_k1 0
ni_s0_w4_t2_k2 0
ni_s0_w4_t3_k0 0
ni_s0_w4_t3_k1 0
ni_s0_w4_t3_k2 0
ni_s0_w4_t4_k0 0
ni_s0_w4_t4_k1 0
ni_s0_w4_t4_k2 0
ni_s0_w4_t5_k0 0
ni_s0_w4_t5_k1 0
ni_s0_w4_t5_k2 0
ni_s0_w4_t6_k0 0
ni_s0_w4_t6_k1 0
ni_s0_w4_t6_k2 0
ni_s0_w4_t7_k0 0
ni_s0_w4_t7_k1 0
ni_s0_w4_t7_k2 0
ni_s0_w4_t8_k0 0
ni_s0_w4_t8_k1 0
ni_s0_w4_t8_k2 0
ni_s0_w4_t9_k0 0
ni_s0_w4_t9_k1 0
ni_s0_w4_t9_k2 0
ni_s0_w4_t10_k0 0
ni_s0_w4_t10_k1 0
ni_s0_w4_t10_k2 0
ni_s1_w0_t0_k0 0
ni_s1_w0_t0_k1 0
ni_s1_w0_t0_k2 0
ni_s1_w0_t1_k0 0
ni_s1_w0_t1_k1 0
ni_s1_w0_t1_k2 0
ni_s1_w0_t2_k0 0
ni_s1_w0_t2_k1 0
ni_s1_w0_t2_k2 0
ni_s1_w0_t3_k0 0
ni_s1_w0_t3_k1 0
ni_s1_w0_t3_k2 0
ni_s1_w0_t4_k0 0
ni_s1_w0_t4_k1 0
ni_s1_w0_t4_k2 0
ni_s1_w0_t5_k0 0
ni_s1_w0_t5_k1 0
ni_s1_w0_t5_k2 0
ni_s1_w0_t6_k0 0
ni_s1_w0_t6_k1 0
ni_s1_w0_t6_k2 0
ni_s1_w0_t7_k0 0
ni_s1_w0_t7_k1 0
ni_s1_w0_t7_k2 0
ni_s1_w0_t8_k0 0
ni_s1_w0_t8_k1 0
ni_s1_w0_t8_k2 0
ni_s1_w0_t9_k0 0
ni_s1_w0_t9_k1 0
ni_s1_w0_t9_k2 0
ni_s1_w0_t10_k0 0
ni_s1_w0_t10_k1 0
ni_s1_w0_t10_k2 0
ni_s1_w1_t0_k0 0
ni_s1_w1_t0_k1 0
ni_s1_w1_t0_k2 0
ni_s1_w1_t1_k0 0
ni_s1_w1_t1_k1 0
ni_s1_w1_t1_k2 0
ni_s1_w1_t2_k0 0
ni_s1_w1_t2_k1 0
ni_s1_w1_t2_k2 0
ni_s1_w1_t3_k0 0
ni_s1_w1_t3_k1 0
ni_s1_w1_t3_k2 0
ni_s1_w1_t4_k0 0
ni_s1_w1_t4_k1 0
ni_s1_w1_t4_k2 0
ni_s1_w1_t5_k0 0
ni_s1_w1_t5_k1 0
ni_s1_w1_t5_k2 0
ni_s1_w1_t6_k0 0
ni_s1_w1_t6_k1 0
ni_s1_w1_t6_k2 0
ni_s1_w1_t7_k0 0
ni_s1_w1_t7_k1 0
ni_s1_w1_t7_k2 0
ni_s1_w1_t8_k0 0
ni_s1_w1_t8_k1 0
ni_s1_w1_t8_k2 0
ni_s1_w1_t9_k0 0
ni_s1_w1_t9_k1 0
ni_s1_w1_t9_k2 0
ni_s1_w1_t10_k0 0
ni_s1_w1_t10_k1 0
ni_s1_w1_t10_k2 0
ni_s1_w2_t0_k0 1
ni_s1_w2_t0_k1 0
ni_s1_w2_t0_k2 0
ni_s1_w2_t1_k0 0
ni_s1_w2_t1_k1 0
ni_s1_w2_t1_k2 0
ni_s1_w2_t2_k0 0
ni_s1_w2_t2_k1 0
ni_s1_w2_t2_k2 0
ni_s1_w2_t3_k0 0
ni_s1_w2_t3_k1 0
ni_s1_w2_t3_k2 0
ni_s1_w2_t4_k0 0
ni_s1_w2_t4_k1 0
ni_s1_w2_t4_k2 0
ni_s1_w2_t5_k0 0
ni_s1_w2_t5_k1 0
ni_s1_w2_t5_k2 0
ni_s1_w2_t6_k0 0
ni_s1_w2_t6_k1 0
ni_s1_w2_t6_k2 0
ni_s1_w2_t7_k0 0
ni_s1_w2_t7_k1 0
ni_s1_w2_t7_k2 0
ni_s1_w2_t8_k0 0
ni_s1_w2_t8_k1 0
ni_s1_w2_t8_k2 0
ni_s1_w2_t9_k0 0
ni_s1_w2_t9_k1 0
ni_s1_w2_t9_k2 0
ni_s1_w2_t10_k0 0
ni_s1_w2_t10_k1 0
ni_s1_w2_t10_k2 0
ni_s1_w3_t0_k0 0
ni_s1_w3_t0_k1 0
ni_s1_w3_t0_k2 0
ni_s1_w3_t1_k0 0
ni_s1_w3_t1_k1 0
ni_s1_w3_t1_k2 0
ni_s1_w3_t2_k0 0
ni_s1_w3_t2_k1 0
ni_s1_w3_t2_k2 0
ni_s1_w3_t3_k0 0
ni_s1_w3_t3_k1 0
ni_s1_w3_t3_k2 0
ni_s1_w3_t4_k0 0
ni_s1_w3_t4_k1 0
ni_s1_w3_t4_k2 0
ni_s1_w3_t5_k0 0
ni_s1_w3_t5_k1 0
ni_s1_w3_t5_k2 0
ni_s1_w3_t6_k0 0
ni_s1_w3_t6_k1 0
ni_s1_w3_t6_k2 0
ni_s1_w3_t7_k0 0
ni_s1_w3_t7_k1 0
ni_s1_w3_t7_k2 0
ni_s1_w3_t8_k0 0
ni_s1_w3_t8_k1 0
ni_s1_w3_t8_k2 0
ni_s1_w3_t9_k0 0
ni_s1_w3_t9_k1 0
ni_s1_w3_t9_k2 0
ni_s1_w3_t10_k0 0
ni_s1_w3_t10_k1 0
ni_s1_w3_t10_k2 0
ni_s1_w4_t0_k0 0
ni_s1_w4_t0_k1 0
ni_s1_w4_t0_k2 0
ni_s1_w4_t1_k0 0
ni_s1_w4_t1_k1 0
ni_s1_w4_t1_k2 0
ni_s1_w4_t2_k0 0
ni_s1_w4_t2_k1 0
ni_s1_w4_t2_k2 0
ni_s1_w4_t3_k0 0
ni_s1_w4_t3_k1 0
ni_s1_w4_t3_k2 0
ni_s1_w4_t4_k0 0
ni_s1_w4_t4_k1 0
ni_s1_w4_t4_k2 0
ni_s1_w4_t5_k0 0
ni_s1_w4_t5_k1 0
ni_s1_w4_t5_k2 0
ni_s1_w4_t6_k0 0
ni_s1_w4_t6_k1 0
ni_s1_w4_t6_k2 0
ni_s1_w4_t7_k0 0
ni_s1_w4_t7_k1 0
ni_s1_w4_t7_k2 0
ni_s1_w4_t8_k0 0
ni_s1_w4_t8_k1 0
ni_s1_w4_t8_k2 0
ni_s1_w4_t9_k0 0
ni_s1_w4_t9_k1 0
ni_s1_w4_t9_k2 0
ni_s1_w4_t10_k0 0
ni_s1_w4_t10_k1 0
ni_s1_w4_t10_k2 0
ni_s2_w0_t0_k0 0
ni_s2_w0_t0_k1 0
ni_s2_w0_t0_k2 0
ni_s2_w0_t1_k0 0
ni_s2_w0_t1_k1 0
ni_s2_w0_t1_k2 0
ni_s2_w0_t2_k0 0
ni_s2_w0_t2_k1 0
ni_s2_w0_t2_k2 0
ni_s2_w0_t3_k0 0
ni_s2_w0_t3_k1 0
ni_s2_w0_t3_k2 0
ni_s2_w0_t4_k0 0
ni_s2_w0_t4_k1 0
ni_s2_w0_t4_k2 0
ni_s2_w0_t5_k0 1
ni_s2_w0_t5_k1 0
ni_s2_w0_t5_k2 0
ni_s2_w0_t6_k0 0
ni_s2_w0_t6_k1 0
ni_s2_w0_t6_k2 0
ni_s2_w0_t7_k0 0
ni_s2_w0_t7_k1 0
ni_s2_w0_t7_k2 0
ni_s2_w0_t8_k0 0
ni_s2_w0_t8_k1 0
ni_s2_w0_t8_k2 0
ni_s2_w0_t9_k0 0
ni_s2_w0_t9_k1 0
ni_s2_w0_t9_k2 0
ni_s2_w0_t10_k0 0
ni_s2_w0_t10_k1 0
ni_s2_w0_t10_k2 0
ni_s2_w1_t0_k0 1
ni_s2_w1_t0_k1 0
ni_s2_w1_t0_k2 0
ni_s2_w1_t1_k0 0
ni_s2_w1_t1_k1 0
ni_s2_w1_t1_k2 0
ni_s2_w1_t2_k0 0
ni_s2_w1_t2_k1 0
ni_s2_w1_t2_k2 0
ni_s2_w1_t3_k0 0
ni_s2_w1_t3_k1 0
ni_s2_w1_t3_k2 0
ni_s2_w1_t4_k0 0
ni_s2_w1_t4_k1 0
ni_s2_w1_t4_k2 0
ni_s2_w1_t5_k0 0
ni_s2_w1_t5_k1 0
ni_s2_w1_t5_k2 0
ni_s2_w1_t6_k0 0
ni_s2_w1_t6_k1 0
ni_s2_w1_t6_k2 0
ni_s2_w1_t7_k0 0
ni_s2_w1_t7_k1 0
ni_s2_w1_t7_k2 0
ni_s2_w1_t8_k0 0
ni_s2_w1_t8_k1 0
ni_s2_w1_t8_k2 0
ni_s2_w1_t9_k0 0
ni_s2_w1_t9_k1 0
ni_s2_w1_t9_k2 0
ni_s2_w1_t10_k0 0
ni_s2_w1_t10_k1 0
ni_s2_w1_t10_k2 1
ni_s2_w2_t0_k0 0
ni_s2_w2_t0_k1 0
ni_s2_w2_t0_k2 0
ni_s2_w2_t1_k0 0
ni_s2_w2_t1_k1 0
ni_s2_w2_t1_k2 0
ni_s2_w2_t2_k0 0
ni_s2_w2_t2_k1 0
ni_s2_w2_t2_k2 0
ni_s2_w2_t3_k0 0
ni_s2_w2_t3_k1 0
ni_s2_w2_t3_k2 0
ni_s2_w2_t4_k0 0
ni_s2_w2_t4_k1 0
ni_s2_w2_t4_k2 0
ni_s2_w2_t5_k0 1
ni_s2_w2_t5_k1 0
ni_s2_w2_t5_k2 0
ni_s2_w2_t6_k0 0
ni_s2_w2_t6_k1 0
ni_s2_w2_t6_k2 0
ni_s2_w2_t7_k0 0
ni_s2_w2_t7_k1 0
ni_s2_w2_t7_k2 0
ni_s2_w2_t8_k0 0
ni_s2_w2_t8_k1 0
ni_s2_w2_t8_k2 0
ni_s2_w2_t9_k0 0
ni_s2_w2_t9_k1 0
ni_s2_w2_t9_k2 0
ni_s2_w2_t10_k0 0
ni_s2_w2_t10_k1 0
ni_s2_w2_t10_k2 1
ni_s2_w3_t0_k0 0
ni_s2_w3_t0_k1 0
ni_s2_w3_t0_k2 0
ni_s2_w3_t1_k0 0
ni_s2_w3_t1_k1 0
ni_s2_w3_t1_k2 0
ni_s2_w3_t2_k0 0
ni_s2_w3_t2_k1 0
ni_s2_w3_t2_k2 0
ni_s2_w3_t3_k0 0
ni_s2_w3_t3_k1 0
ni_s2_w3_t3_k2 0
ni_s2_w3_t4_k0 0
ni_s2_w3_t4_k1 0
ni_s2_w3_t4_k2 0
ni_s2_w3_t5_k0 0
ni_s2_w3_t5_k1 0
ni_s2_w3_t5_k2 0
ni_s2_w3_t6_k0 0
ni_s2_w3_t6_k1 0
ni_s2_w3_t6_k2 0
ni_s2_w3_t7_k0 0
ni_s2_w3_t7_k1 0
ni_s2_w3_t7_k2 0
ni_s2_w3_t8_k0 0
ni_s2_w3_t8_k1 0
ni_s2_w3_t8_k2 0
ni_s2_w3_t9_k0 0
ni_s2_w3_t9_k1 0
ni_s2_w3_t9_k2 0
ni_s2_w3_t10_k0 0
ni_s2_w3_t10_k1 0
ni_s2_w3_t10_k2 0
ni_s2_w4_t0_k0 0
ni_s2_w4_t0_k1 0
ni_s2_w4_t0_k2 0
ni_s2_w4_t1_k0 0
ni_s2_w4_t1_k1 0
ni_s2_w4_t1_k2 0
ni_s2_w4_t2_k0 0
ni_s2_w4_t2_k1 0
ni_s2_w4_t2_k2 0
ni_s2_w4_t3_k0 0
ni_s2_w4_t3_k1 0
ni_s2_w4_t3_k2 0
ni_s2_w4_t4_k0 0
ni_s2_w4_t4_k1 0
ni_s2_w4_t4_k2 0
ni_s2_w4_t5_k0 0
ni_s2_w4_t5_k1 0
ni_s2_w4_t5_k2 0
ni_s2_w4_t6_k0 0
ni_s2_w4_t6_k1 0
ni_s2_w4_t6_k2 0
ni_s2_w4_t7_k0 0
ni_s2_w4_t7_k1 0
ni_s2_w4_t7_k2 0
ni_s2_w4_t8_k0 0
ni_s2_w4_t8_k1 0
ni_s2_w4_t8_k2 0
ni_s2_w4_t9_k0 0
ni_s2_w4_t9_k1 0
ni_s2_w4_t9_k2 0
ni_s2_w4_t10_k0 0
ni_s2_w4_t10_k1 0
ni_s2_w4_t10_k2 0
ni_s3_w0_t0_k0 0
ni_s3_w0_t0_k1 0
ni_s3_w0_t0_k2 0
ni_s3_w0_t1_k0 0
ni_s3_w0_t1_k1 0
ni_s3_w0_t1_k2 0
ni_s3_w0_t2_k0 0
ni_s3_w0_t2_k1 0
ni_s3_w0_t2_k2 0
ni_s3_w0_t3_k0 0
ni_s3_w0_t3_k1 0
ni_s3_w0_t3_k2 0
ni_s3_w0_t4_k0 0
ni_s3_w0_t4_k1 0
ni_s3_w0_t4_k2 0
ni_s3_w0_t5_k0 0
ni_s3_w0_t5_k1 0
ni_s3_w0_t5_k2 0
ni_s3_w0_t6_k0 0
ni_s3_w0_t6_k1 0
ni_s3_w0_t6_k2 0
ni_s3_w0_t7_k0 0
ni_s3_w0_t7_k1 0
ni_s3_w0_t7_k2 0
ni_s3_w0_t8_k0 0
ni_s3_w0_t8_k1 0
ni_s3_w0_t8_k2 0
ni_s3_w0_t9_k0 0
ni_s3_w0_t9_k1 0
ni_s3_w0_t9_k2 0
ni_s3_w0_t10_k0 0
ni_s3_w0_t10_k1 0
ni_s3_w0_t10_k2 0
ni_s3_w1_t0_k0 0
ni_s3_w1_t0_k1 0
ni_s3_w1_t0_k2 0
ni_s3_w1_t1_k0 0
ni_s3_w1_t1_k1 0
ni_s3_w1_t1_k2 0
ni_s3_w1_t2_k0 0
ni_s3_w1_t2_k1 0
ni_s3_w1_t2_k2 0
ni_s3_w1_t3_k0 0
ni_s3_w1_t3_k1 0
ni_s3_w1_t3_k2 0
ni_s3_w1_t4_k0 1
ni_s3_w1_t4_k1 0
ni_s3_w1_t4_k2 0
ni_s3_w1_t5_k0 0
ni_s3_w1_t5_k1 0
ni_s3_w1_t5_k2 1
ni_s3_w1_t6_k0 0
ni_s3_w1_t6_k1 0
ni_s3_w1_t6_k2 0
ni_s3_w1_t7_k0 0
ni_s3_w1_t7_k1 0
ni_s3_w1_t7_k2 0
ni_s3_w1_t8_k0 0
ni_s3_w1_t8_k1 0
ni_s3_w1_t8_k2 0
ni_s3_w1_t9_k0 0
ni_s3_w1_t9_k1 0
ni_s3_w1_t9_k2 0
ni_s3_w1_t10_k0 0
ni_s3_w1_t10_k1 0
ni_s3_w1_t10_k2 0
ni_s3_w2_t0_k0 0
ni_s3_w2_t0_k1 0
ni_s3_w2_t0_k2 0
ni_s3_w2_t1_k0 0
ni_s3_w2_t1_k1 0
ni_s3_w2_t1_k2 0
ni_s3_w2_t2_k0 0
ni_s3_w2_t2_k1 0
ni_s3_w2_t2_k2 1
ni_s3_w2_t3_k0 0
ni_s3_w2_t3_k1 0
ni_s3_w2_t3_k2 0
ni_s3_w2_t4_k0 0
ni_s3_w2_t4_k1 0
ni_s3_w2_t4_k2 0
ni_s3_w2_t5_k0 0
ni_s3_w2_t5_k1 0
ni_s3_w2_t5_k2 0
ni_s3_w2_t6_k0 0
ni_s3_w2_t6_k1 0
ni_s3_w2_t6_k2 0
ni_s3_w2_t7_k0 0
ni_s3_w2_t7_k1 0
ni_s3_w2_t7_k2 0
ni_s3_w2_t8_k0 0
ni_s3_w2_t8_k1 0
ni_s3_w2_t8_k2 0
ni_s3_w2_t9_k0 0
ni_s3_w2_t9_k1 0
ni_s3_w2_t9_k2 0
ni_s3_w2_t10_k0 0
ni_s3_w2_t10_k1 0
ni_s3_w2_t10_k2 0
ni_s3_w3_t0_k0 0
ni_s3_w3_t0_k1 0
ni_s3_w3_t0_k2 0
ni_s3_w3_t1_k0 0
ni_s3_w3_t1_k1 0
ni_s3_w3_t1_k2 0
ni_s3_w3_t2_k0 0
ni_s3_w3_t2_k1 0
ni_s3_w3_t2_k2 0
ni_s3_w3_t3_k0 0
ni_s3_w3_t3_k1 0
ni_s3_w3_t3_k2 0
ni_s3_w3_t4_k0 0
ni_s3_w3_t4_k1 1
ni_s3_w3_t4_k2 0
ni_s3_w3_t5_k0 0
ni_s3_w3_t5_k1 0
ni_s3_w3_t5_k2 0
ni_s3_w3_t6_k0 0
ni_s3_w3_t6_k1 0
ni_s3_w3_t6_k2 0
ni_s3_w3_t7_k0 0
ni_s3_w3_t7_k1 0
ni_s3_w3_t7_k2 0
ni_s3_w3_t8_k0 0
ni_s3_w3_t8_k1 0
ni_s3_w3_t8_k2 0
ni_s3_w3_t9_k0 0
ni_s3_w3_t9_k1 0
ni_s3_w3_t9_k2 0
ni_s3_w3_t10_k0 0
ni_s3_w3_t10_k1 0
ni_s3_w3_t10_k2 0
ni_s3_w4_t0_k0 0
ni_s3_w4_t0_k1 0
ni_s3_w4_t0_k2 0
ni_s3_w4_t1_k0 0
ni_s3_w4_t1_k1 0
ni_s3_w4_t1_k2 0
ni_s3_w4_t2_k0 0
ni_s3_w4_t2_k1 0
ni_s3_w4_t2_k2 0
ni_s3_w4_t3_k0 0
ni_s3_w4_t3_k1 0
ni_s3_w4_t3_k2 0
ni_s3_w4_t4_k0 0
ni_s3_w4_t4_k1 0
ni_s3_w4_t4_k2 0
ni_s3_w4_t5_k0 0
ni_s3_w4_t5_k1 0
ni_s3_w4_t5_k2 0
ni_s3_w4_t6_k0 0
ni_s3_w4_t6_k1 0
ni_s3_w4_t6_k2 0
ni_s3_w4_t7_k0 0
ni_s3_w4_t7_k1 0
ni_s3_w4_t7_k2 0
ni_s3_w4_t8_k0 0
ni_s3_w4_t8_k1 0
ni_s3_w4_t8_k2 0
ni_s3_w4_t9_k0 0
ni_s3_w4_t9_k1 0
ni_s3_w4_t9_k2 0
ni_s3_w4_t10_k0 0
ni_s3_w4_t10_k1 0
ni_s3_w4_t10_k2 0
X(s0,w0,k0,t0) 0
X(s0,w0,k1,t0) 0
X(s0,w0,k2,t0) 0
X(s0,w0,k0,t1) 0
X(s0,w0,k1,t1) 0
X(s0,w0,k2,t1) 0
X(s0,w0,k0,t2) 0
X(s0,w0,k1,t2) 0
X(s0,w0,k2,t2) 0
X(s0,w0,k0,t3) 0
X(s0,w0,k1,t3) 0
X(s0,w0,k2,t3) 0
X(s0,w0,k0,t4) 0
X(s0,w0,k1,t4) 0
X(s0,w0,k2,t4) 0
X(s0,w0,k0,t5) 0
X(s0,w0,k1,t5) 0
X(s0,w0,k2,t5) 2.3395702967514242e-01
X(s0,w0,k0,t6) 0
X(s0,w0,k1,t6) 0
X(s0,w0,k2,t6) 0
X(s0,w0,k0,t7) 0
X(s0,w0,k1,t7) 0
X(s0,w0,k2,t7) 0
X(s0,w0,k0,t8) 0
X(s0,w0,k1,t8) 0
X(s0,w0,k2,t8) 0
X(s0,w0,k0,t9) 0
X(s0,w0,k1,t9) 0
X(s0,w0,k2,t9) 0
X(s0,w0,k0,t10) 2.3395702967514242e-01
X(s0,w0,k1,t10) 0
X(s0,w0,k2,t10) 0
X(s0,w1,k0,t0) 0
X(s0,w1,k1,t0) 0
X(s0,w1,k2,t0) 2.3395702967514134e-01
X(s0,w1,k0,t1) 0
X(s0,w1,k1,t1) 0
X(s0,w1,k2,t1) 0
X(s0,w1,k0,t2) 0
X(s0,w1,k1,t2) 0
X(s0,w1,k2,t2) 0
X(s0,w1,k0,t3) 0
X(s0,w1,k1,t3) 0
X(s0,w1,k2,t3) 0
X(s0,w1,k0,t4) 0
X(s0,w1,k1,t4) 0
X(s0,w1,k2,t4) 0
X(s0,w1,k0,t5) 0
X(s0,w1,k1,t5) 0
X(s0,w1,k2,t5) 0
X(s0,w1,k0,t6) 0
X(s0,w1,k1,t6) 0
X(s0,w1,k2,t6) 0
X(s0,w1,k0,t7) 0
X(s0,w1,k1,t7) 0
X(s0,w1,k2,t7) 0
X(s0,w1,k0,t8) 0
X(s0,w1,k1,t8) 0
X(s0,w1,k2,t8) 0
X(s0,w1,k0,t9) 0
X(s0,w1,k1,t9) 0
X(s0,w1,k2,t9) 0
X(s0,w1,k0,t10) 0
X(s0,w1,k1,t10) 0
X(s0,w1,k2,t10) 0
X(s0,w2,k0,t0) 0
X(s0,w2,k1,t0) 0
X(s0,w2,k2,t0) 0
X(s0,w2,k0,t1) 0
X(s0,w2,k1,t1) 0
X(s0,w2,k2,t1) 0
X(s0,w2,k0,t2) 0
X(s0,w2,k1,t2) 0
X(s0,w2,k2,t2) 2.3395702967514242e-01
X(s0,w2,k0,t3) 0
X(s0,w2,k1,t3) 0
X(s0,w2,k2,t3) 0
X(s0,w2,k0,t4) 0
X(s0,w2,k1,t4) 0
X(s0,w2,k2,t4) 0
X(s0,w2,k0,t5) 0
X(s0,w2,k1,t5) 0
X(s0,w2,k2,t5) 0
X(s0,w2,k0,t6) 0
X(s0,w2,k1,t6) 0
X(s0,w2,k2,t6) 0
X(s0,w2,k0,t7) 0
X(s0,w2,k1,t7) 0
X(s0,w2,k2,t7) 0
X(s0,w2,k0,t8) 0
X(s0,w2,k1,t8) 0
X(s0,w2,k2,t8) 0
X(s0,w2,k0,t9) 0
X(s0,w2,k1,t9) 0
X(s0,w2,k2,t9) 0
X(s0,w2,k0,t10) 0
X(s0,w2,k1,t10) 0
X(s0,w2,k2,t10) 0
X(s0,w3,k0,t0) 0
X(s0,w3,k1,t0) 0
X(s0,w3,k2,t0) 0
X(s0,w3,k0,t1) 0
X(s0,w3,k1,t1) 0
X(s0,w3,k2,t1) 0
X(s0,w3,k0,t2) 0
X(s0,w3,k1,t2) 0
X(s0,w3,k2,t2) 0
X(s0,w3,k0,t3) 0
X(s0,w3,k1,t3) 0
X(s0,w3,k2,t3) 0
X(s0,w3,k0,t4) 0
X(s0,w3,k1,t4) 0
X(s0,w3,k2,t4) 0
X(s0,w3,k0,t5) 0
X(s0,w3,k1,t5) 0
X(s0,w3,k2,t5) 0
X(s0,w3,k0,t6) 0
X(s0,w3,k1,t6) 0
X(s0,w3,k2,t6) 0
X(s0,w3,k0,t7) 0
X(s0,w3,k1,t7) 0
X(s0,w3,k2,t7) 0
X(s0,w3,k0,t8) 0
X(s0,w3,k1,t8) 0
X(s0,w3,k2,t8) 0
X(s0,w3,k0,t9) 0
X(s0,w3,k1,t9) 0
X(s0,w3,k2,t9) 0
X(s0,w3,k0,t10) 0
X(s0,w3,k1,t10) 0
X(s0,w3,k2,t10) 0
X(s0,w4,k0,t0) 0
X(s0,w4,k1,t0) 0
X(s0,w4,k2,t0) 0
X(s0,w4,k0,t1) 0
X(s0,w4,k1,t1) 0
X(s0,w4,k2,t1) 0
X(s0,w4,k0,t2) 0
X(s0,w4,k1,t2) 0
X(s0,w4,k2,t2) 0
X(s0,w4,k0,t3) 0
X(s0,w4,k1,t3) 0
X(s0,w4,k2,t3) 0
X(s0,w4,k0,t4) 0
X(s0,w4,k1,t4) 0
X(s0,w4,k2,t4) 0
X(s0,w4,k0,t5) 0
X(s0,w4,k1,t5) 0
X(s0,w4,k2,t5) 0
X(s0,w4,k0,t6) 0
X(s0,w4,k1,t6) 0
X(s0,w4,k2,t6) 0
X(s0,w4,k0,t7) 0
X(s0,w4,k1,t7) 0
X(s0,w4,k2,t7) 0
X(s0,w4,k0,t8) 0
X(s0,w4,k1,t8) 0
X(s0,w4,k2,t8) 0
X(s0,w4,k0,t9) 0
X(s0,w4,k1,t9) 0
X(s0,w4,k2,t9) 0
X(s0,w4,k0,t10) 0
X(s0,w4,k1,t10) 0
X(s0,w4,k2,t10) 0
X(s1,w0,k0,t0) 0
X(s1,w0,k1,t0) 0
X(s1,w0,k2,t0) 0
X(s1,w0,k0,t1) 0
X(s1,w0,k1,t1) 0
X(s1,w0,k2,t1) 0
X(s1,w0,k0,t2) 0
X(s1,w0,k1,t2) 0
X(s1,w0,k2,t2) 0
X(s1,w0,k0,t3) 0
X(s1,w0,k1,t3) 0
X(s1,w0,k2,t3) 0
X(s1,w0,k0,t4) 0
X(s1,w0,k1,t4) 0
X(s1,w0,k2,t4) 0
X(s1,w0,k0,t5) 0
X(s1,w0,k1,t5) 0
X(s1,w0,k2,t5) 0
X(s1,w0,k0,t6) 0
X(s1,w0,k1,t6) 0
X(s1,w0,k2,t6) 0
X(s1,w0,k0,t7) 0
X(s1,w0,k1,t7) 0
X(s1,w0,k2,t7) 0
X(s1,w0,k0,t8) 0
X(s1,w0,k1,t8) 0
X(s1,w0,k2,t8) 0
X(s1,w0,k0,t9) 0
X(s1,w0,k1,t9) 0
X(s1,w0,k2,t9) 0
X(s1,w0,k0,t10) 0
X(s1,w0,k1,t10) 0
X(s1,w0,k2,t10) 0
X(s1,w1,k0,t0) 0
X(s1,w1,k1,t0) 0
X(s1,w1,k2,t0) 0
X(s1,w1,k0,t1) 0
X(s1,w1,k1,t1) 0
X(s1,w1,k2,t1) 0
X(s1,w1,k0,t2) 0
X(s1,w1,k1,t2) 0
X(s1,w1,k2,t2) 0
X(s1,w1,k0,t3) 0
X(s1,w1,k1,t3) 0
X(s1,w1,k2,t3) 0
X(s1,w1,k0,t4) 0
X(s1,w1,k1,t4) 0
X(s1,w1,k2,t4) 0
X(s1,w1,k0,t5) 0
X(s1,w1,k1,t5) 0
X(s1,w1,k2,t5) 0
X(s1,w1,k0,t6) 0
X(s1,w1,k1,t6) 0
X(s1,w1,k2,t6) 0
X(s1,w1,k0,t7) 0
X(s1,w1,k1,t7) 0
X(s1,w1,k2,t7) 0
X(s1,w1,k0,t8) 0
X(s1,w1,k1,t8) 0
X(s1,w1,k2,t8) 0
X(s1,w1,k0,t9) 0
X(s1,w1,k1,t9) 0
X(s1,w1,k2,t9) 0
X(s1,w1,k0,t10) 0
X(s1,w1,k1,t10) 0
X(s1,w1,k2,t10) 0
X(s1,w2,k0,t0) 2.6074317485922149e-01
X(s1,w2,k1,t0) 0
X(s1,w2,k2,t0) 0
X(s1,w2,k0,t1) 0
X(s1,w2,k1,t1) 0
X(s1,w2,k2,t1) 0
X(s1,w2,k0,t2) 0
X(s1,w2,k1,t2) 0
X(s1,w2,k2,t2) 0
X(s1,w2,k0,t3) 0
X(s1,w2,k1,t3) 0
X(s1,w2,k2,t3) 0
X(s1,w2,k0,t4) 0
X(s1,w2,k1,t4) 0
X(s1,w2,k2,t4) 0
X(s1,w2,k0,t5) 0
X(s1,w2,k1,t5) 0
X(s1,w2,k2,t5) 0
X(s1,w2,k0,t6) 0
X(s1,w2,k1,t6) 0
X(s1,w2,k2,t6) 0
X(s1,w2,k0,t7) 0
X(s1,w2,k1,t7) 0
X(s1,w2,k2,t7) 0
X(s1,w2,k0,t8) 0
X(s1,w2,k1,t8) 0
X(s1,w2,k2,t8) 0
X(s1,w2,k0,t9) 0
X(s1,w2,k1,t9) 0
X(s1,w2,k2,t9) 0
X(s1,w2,k0,t10) 0
X(s1,w2,k1,t10) 0
X(s1,w2,k2,t10) 0
X(s1,w3,k0,t0) 0
X(s1,w3,k1,t0) 0
X(s1,w3,k2,t0) 0
X(s1,w3,k0,t1) 0
X(s1,w3,k1,t1) 0
X(s1,w3,k2,t1) 0
X(s1,w3,k0,t2) 0
X(s1,w3,k1,t2) 0
X(s1,w3,k2,t2) 0
X(s1,w3,k0,t3) 0
X(s1,w3,k1,t3) 0
X(s1,w3,k2,t3) 0
X(s1,w3,k0,t4) 0
X(s1,w3,k1,t4) 0
X(s1,w3,k2,t4) 0
X(s1,w3,k0,t5) 0
X(s1,w3,k1,t5) 0
X(s1,w3,k2,t5) 0
X(s1,w3,k0,t6) 0
X(s1,w3,k1,t6) 0
X(s1,w3,k2,t6) 0
X(s1,w3,k0,t7) 0
X(s1,w3,k1,t7) 0
X(s1,w3,k2,t7) 0
X(s1,w3,k0,t8) 0
X(s1,w3,k1,t8) 0
X(s1,w3,k2,t8) 0
X(s1,w3,k0,t9) 0
X(s1,w3,k1,t9) 0
X(s1,w3,k2,t9) 0
X(s1,w3,k0,t10) 0
X(s1,w3,k1,t10) 0
X(s1,w3,k2,t10) 0
X(s1,w4,k0,t0) 0
X(s1,w4,k1,t0) 0
X(s1,w4,k2,t0) 0
X(s1,w4,k0,t1) 0
X(s1,w4,k1,t1) 0
X(s1,w4,k2,t1) 0
X(s1,w4,k0,t2) 0
X(s1,w4,k1,t2) 0
X(s1,w4,k2,t2) 0
X(s1,w4,k0,t3) 0
X(s1,w4,k1,t3) 0
X(s1,w4,k2,t3) 0
X(s1,w4,k0,t4) 0
X(s1,w4,k1,t4) 0
X(s1,w4,k2,t4) 0
X(s1,w4,k0,t5) 0
X(s1,w4,k1,t5) 0
X(s1,w4,k2,t5) 0
X(s1,w4,k0,t6) 0
X(s1,w4,k1,t6) 0
X(s1,w4,k2,t6) 0
X(s1,w4,k0,t7) 0
X(s1,w4,k1,t7) 0
X(s1,w4,k2,t7) 0
X(s1,w4,k0,t8) 0
X(s1,w4,k1,t8) 0
X(s1,w4,k2,t8) 0
X(s1,w4,k0,t9) 0
X(s1,w4,k1,t9) 0
X(s1,w4,k2,t9) 0
X(s1,w4,k0,t10) 0
X(s1,w4,k1,t10) 0
X(s1,w4,k2,t10) 0
X(s2,w0,k0,t0) 0
X(s2,w0,k1,t0) 0
X(s2,w0,k2,t0) 0
X(s2,w0,k0,t1) 0
X(s2,w0,k1,t1) 0
X(s2,w0,k2,t1) 0
X(s2,w0,k0,t2) 0
X(s2,w0,k1,t2) 0
X(s2,w0,k2,t2) 0
X(s2,w0,k0,t3) 0
X(s2,w0,k1,t3) 0
X(s2,w0,k2,t3) 0
X(s2,w0,k0,t4) 0
X(s2,w0,k1,t4) 0
X(s2,w0,k2,t4) 0
X(s2,w0,k0,t5) 2.3984054833702473e-01
X(s2,w0,k1,t5) 0
X(s2,w0,k2,t5) 0
X(s2,w0,k0,t6) 0
X(s2,w0,k1,t6) 0
X(s2,w0,k2,t6) 0
X(s2,w0,k0,t7) 0
X(s2,w0,k1,t7) 0
X(s2,w0,k2,t7) 0
X(s2,w0,k0,t8) 0
X(s2,w0,k1,t8) 0
X(s2,w0,k2,t8) 0
X(s2,w0,k0,t9) 0
X(s2,w0,k1,t9) 0
X(s2,w0,k2,t9) 0
X(s2,w0,k0,t10) 0
X(s2,w0,k1,t10) 0
X(s2,w0,k2,t10) 0
X(s2,w1,k0,t0) 2.3984054833702445e-01
X(s2,w1,k1,t0) 0
X(s2,w1,k2,t0) 0
X(s2,w1,k0,t1) 0
X(s2,w1,k1,t1) 0
X(s2,w1,k2,t1) 0
X(s2,w1,k0,t2) 0
X(s2,w1,k1,t2) 0
X(s2,w1,k2,t2) 0
X(s2,w1,k0,t3) 0
X(s2,w1,k1,t3) 0
X(s2,w1,k2,t3) 0
X(s2,w1,k0,t4) 0
X(s2,w1,k1,t4) 0
X(s2,w1,k2,t4) 0
X(s2,w1,k0,t5) 0
X(s2,w1,k1,t5) 0
X(s2,w1,k2,t5) 0
X(s2,w1,k0,t6) 0
X(s2,w1,k1,t6) 0
X(s2,w1,k2,t6) 0
X(s2,w1,k0,t7) 0
X(s2,w1,k1,t7) 0
X(s2,w1,k2,t7) 0
X(s2,w1,k0,t8) 0
X(s2,w1,k1,t8) 0
X(s2,w1,k2,t8) 0
X(s2,w1,k0,t9) 0
X(s2,w1,k1,t9) 0
X(s2,w1,k2,t9) 0
X(s2,w1,k0,t10) 0
X(s2,w1,k1,t10) 0
X(s2,w1,k2,t10) 2.3984054833702445e-01
X(s2,w2,k0,t0) 0
X(s2,w2,k1,t0) 0
X(s2,w2,k2,t0) 0
X(s2,w2,k0,t1) 0
X(s2,w2,k1,t1) 0
X(s2,w2,k2,t1) 0
X(s2,w2,k0,t2) 0
X(s2,w2,k1,t2) 0
X(s2,w2,k2,t2) 0
X(s2,w2,k0,t3) 0
X(s2,w2,k1,t3) 0
X(s2,w2,k2,t3) 0
X(s2,w2,k0,t4) 0
X(s2,w2,k1,t4) 0
X(s2,w2,k2,t4) 0
X(s2,w2,k0,t5) 2.3984054833702445e-01
X(s2,w2,k1,t5) 0
X(s2,w2,k2,t5) 0
X(s2,w2,k0,t6) 0
X(s2,w2,k1,t6) 0
X(s2,w2,k2,t6) 0
X(s2,w2,k0,t7) 0
X(s2,w2,k1,t7) 0
X(s2,w2,k2,t7) 0
X(s2,w2,k0,t8) 0
X(s2,w2,k1,t8) 0
X(s2,w2,k2,t8) 0
X(s2,w2,k0,t9) 0
X(s2,w2,k1,t9) 0
X(s2,w2,k2,t9) 0
X(s2,w2,k0,t10) 0
X(s2,w2,k1,t10) 0
X(s2,w2,k2,t10) 2.3984054833701196e-01
X(s2,w3,k0,t0) 0
X(s2,w3,k1,t0) 0
X(s2,w3,k2,t0) 0
X(s2,w3,k0,t1) 0
X(s2,w3,k1,t1) 0
X(s2,w3,k2,t1) 0
X(s2,w3,k0,t2) 0
X(s2,w3,k1,t2) 0
X(s2,w3,k2,t2) 0
X(s2,w3,k0,t3) 0
X(s2,w3,k1,t3) 0
X(s2,w3,k2,t3) 0
X(s2,w3,k0,t4) 0
X(s2,w3,k1,t4) 0
X(s2,w3,k2,t4) 0
X(s2,w3,k0,t5) 0
X(s2,w3,k1,t5) 0
X(s2,w3,k2,t5) 0
X(s2,w3,k0,t6) 0
X(s2,w3,k1,t6) 0
X(s2,w3,k2,t6) 0
X(s2,w3,k0,t7) 0
X(s2,w3,k1,t7) 0
X(s2,w3,k2,t7) 0
X(s2,w3,k0,t8) 0
X(s2,w3,k1,t8) 0
X(s2,w3,k2,t8) 0
X(s2,w3,k0,t9) 0
X(s2,w3,k1,t9) 0
X(s2,w3,k2,t9) 0
X(s2,w3,k0,t10) 0
X(s2,w3,k1,t10) 0
X(s2,w3,k2,t10) 0
X(s2,w4,k0,t0) 0
X(s2,w4,k1,t0) 0
X(s2,w4,k2,t0) 0
X(s2,w4,k0,t1) 0
X(s2,w4,k1,t1) 0
X(s2,w4,k2,t1) 0
X(s2,w4,k0,t2) 0
X(s2,w4,k1,t2) 0
X(s2,w4,k2,t2) 0
X(s2,w4,k0,t3) 0
X(s2,w4,k1,t3) 0
X(s2,w4,k2,t3) 0
X(s2,w4,k0,t4) 0
X(s2,w4,k1,t4) 0
X(s2,w4,k2,t4) 0
X(s2,w4,k0,t5) 0
X(s2,w4,k1,t5) 0
X(s2,w4,k2,t5) 0
X(s2,w4,k0,t6) 0
X(s2,w4,k1,t6) 0
X(s2,w4,k2,t6) 0
X(s2,w4,k0,t7) 0
X(s2,w4,k1,t7) 0
X(s2,w4,k2,t7) 0
X(s2,w4,k0,t8) 0
X(s2,w4,k1,t8) 0
X(s2,w4,k2,t8) 0
X(s2,w4,k0,t9) 0
X(s2,w4,k1,t9) 0
X(s2,w4,k2,t9) 0
X(s2,w4,k0,t10) 0
X(s2,w4,k1,t10) 0
X(s2,w4,k2,t10) 0
X(s3,w0,k0,t0) 0
X(s3,w0,k1,t0) 0
X(s3,w0,k2,t0) 0
X(s3,w0,k0,t1) 0
X(s3,w0,k1,t1) 0
X(s3,w0,k2,t1) 0
X(s3,w0,k0,t2) 0
X(s3,w0,k1,t2) 0
X(s3,w0,k2,t2) 0
X(s3,w0,k0,t3) 0
X(s3,w0,k1,t3) 0
X(s3,w0,k2,t3) 0
X(s3,w0,k0,t4) 0
X(s3,w0,k1,t4) 0
X(s3,w0,k2,t4) 0
X(s3,w0,k0,t5) 0
X(s3,w0,k1,t5) 0
X(s3,w0,k2,t5) 0
X(s3,w0,k0,t6) 0
X(s3,w0,k1,t6) 0
X(s3,w0,k2,t6) 0
X(s3,w0,k0,t7) 0
X(s3,w0,k1,t7) 0
X(s3,w0,k2,t7) 0
X(s3,w0,k0,t8) 0
X(s3,w0,k1,t8) 0
X(s3,w0,k2,t8) 0
X(s3,w0,k0,t9) 0
X(s3,w0,k1,t9) 0
X(s3,w0,k2,t9) 0
X(s3,w0,k0,t10) 0
X(s3,w0,k1,t10) 0
X(s3,w0,k2,t10) 0
X(s3,w1,k0,t0) 0
X(s3,w1,k1,t0) 0
X(s3,w1,k2,t0) 0
X(s3,w1,k0,t1) 0
X(s3,w1,k1,t1) 0
X(s3,w1,k2,t1) 0
X(s3,w1,k0,t2) 0
X(s3,w1,k1,t2) 0
X(s3,w1,k2,t2) 0
X(s3,w1,k0,t3) 0
X(s3,w1,k1,t3) 0
X(s3,w1,k2,t3) 0
X(s3,w1,k0,t4) 2.6545924712860536e-01
X(s3,w1,k1,t4) 0
X(s3,w1,k2,t4) 0
X(s3,w1,k0,t5) 0
X(s3,w1,k1,t5) 0
X(s3,w1,k2,t5) 2.6545924712860536e-01
X(s3,w1,k0,t6) 0
X(s3,w1,k1,t6) 0
X(s3,w1,k2,t6) 0
X(s3,w1,k0,t7) 0
X(s3,w1,k1,t7) 0
X(s3,w1,k2,t7) 0
X(s3,w1,k0,t8) 0
X(s3,w1,k1,t8) 0
X(s3,w1,k2,t8) 0
X(s3,w1,k0,t9) 0
X(s3,w1,k1,t9) 0
X(s3,w1,k2,t9) 0
X(s3,w1,k0,t10) 0
X(s3,w1,k1,t10) 0
X(s3,w1,k2,t10) 0
X(s3,w2,k0,t0) 0
X(s3,w2,k1,t0) 0
X(s3,w2,k2,t0) 0
X(s3,w2,k0,t1) 0
X(s3,w2,k1,t1) 0
X(s3,w2,k2,t1) 0
X(s3,w2,k0,t2) 0
X(s3,w2,k1,t2) 0
X(s3,w2,k2,t2) 2.6545924712860536e-01
X(s3,w2,k0,t3) 0
X(s3,w2,k1,t3) 0
X(s3,w2,k2,t3) 0
X(s3,w2,k0,t4) 0
X(s3,w2,k1,t4) 0
X(s3,w2,k2,t4) 0
X(s3,w2,k0,t5) 0
X(s3,w2,k1,t5) 0
X(s3,w2,k2,t5) 0
X(s3,w2,k0,t6) 0
X(s3,w2,k1,t6) 0
X(s3,w2,k2,t6) 0
X(s3,w2,k0,t7) 0
X(s3,w2,k1,t7) 0
X(s3,w2,k2,t7) 0
X(s3,w2,k0,t8) 0
X(s3,w2,k1,t8) 0
X(s3,w2,k2,t8) 0
X(s3,w2,k0,t9) 0
X(s3,w2,k1,t9) 0
X(s3,w2,k2,t9) 0
X(s3,w2,k0,t10) 0
X(s3,w2,k1,t10) 0
X(s3,w2,k2,t10) 0
X(s3,w3,k0,t0) 0
X(s3,w3,k1,t0) 0
X(s3,w3,k2,t0) 0
X(s3,w3,k0,t1) 0
X(s3,w3,k1,t1) 0
X(s3,w3,k2,t1) 0
X(s3,w3,k0,t2) 0
X(s3,w3,k1,t2) 0
X(s3,w3,k2,t2) 0
X(s3,w3,k0,t3) 0
X(s3,w3,k1,t3) 0
X(s3,w3,k2,t3) 0
X(s3,w3,k0,t4) 0
X(s3,w3,k1,t4) 2.6545924712860536e-01
X(s3,w3,k2,t4) 0
X(s3,w3,k0,t5) 0
X(s3,w3,k1,t5) 0
X(s3,w3,k2,t5) 0
X(s3,w3,k0,t6) 0
X(s3,w3,k1,t6) 0
X(s3,w3,k2,t6) 0
X(s3,w3,k0,t7) 0
X(s3,w3,k1,t7) 0
X(s3,w3,k2,t7) 0
X(s3,w3,k0,t8) 0
X(s3,w3,k1,t8) 0
X(s3,w3,k2,t8) 0
X(s3,w3,k0,t9) 0
X(s3,w3,k1,t9) 0
X(s3,w3,k2,t9) 0
X(s3,w3,k0,t10) 0
X(s3,w3,k1,t10) 0
X(s3,w3,k2,t10) 0
X(s3,w4,k0,t0) 0
X(s3,w4,k1,t0) 0
X(s3,w4,k2,t0) 0
X(s3,w4,k0,t1) 0
X(s3,w4,k1,t1) 0
X(s3,w4,k2,t1) 0
X(s3,w4,k0,t2) 0
X(s3,w4,k1,t2) 0
X(s3,w4,k2,t2) 0
X(s3,w4,k0,t3) 0
X(s3,w4,k1,t3) 0
X(s3,w4,k2,t3) 0
X(s3,w4,k0,t4) 0
X(s3,w4,k1,t4) 0
X(s3,w4,k2,t4) 0
X(s3,w4,k0,t5) 0
X(s3,w4,k1,t5) 0
X(s3,w4,k2,t5) 0
X(s3,w4,k0,t6) 0
X(s3,w4,k1,t6) 0
X(s3,w4,k2,t6) 0
X(s3,w4,k0,t7) 0
X(s3,w4,k1,t7) 0
X(s3,w4,k2,t7) 0
X(s3,w4,k0,t8) 0
X(s3,w4,k1,t8) 0
X(s3,w4,k2,t8) 0
X(s3,w4,k0,t9) 0
X(s3,w4,k1,t9) 0
X(s3,w4,k2,t9) 0
X(s3,w4,k0,t10) 0
X(s3,w4,k1,t10) 0
X(s3,w4,k2,t10) 0
o_w0_r0 0
o_w0_r1 0
o_w0_r2 0
o_w0_r3 0
o_w1_r0 0
o_w1_r1 0
o_w1_r2 0
o_w1_r3 0
o_w2_r0 2.0162345193101643e+02
o_w2_r1 0
o_w2_r2 2.3534882392491932e+02
o_w2_r3 0
o_w3_r0 2.3827074189630622e+01
o_w3_r1 0
o_w3_r2 1.2234882392491932e+02
o_w3_r3 0
o_w4_r0 5.9827074189630622e+01
o_w4_r1 0
o_w4_r2 2.9534882392491932e+02
o_w4_r3 0
O_0_w0_r0 0
O_0_w0_r1 0
O_0_w0_r2 0
O_0_w0_r3 0
O_0_w1_r0 0
O_0_w1_r1 0
O_0_w1_r2 0
O_0_w1_r3 0
O_0_w2_r0 176
O_0_w2_r1 0
O_0_w2_r2 250
O_0_w2_r3 0
O_0_w3_r0 2.4623451931016433e+01
O_0_w3_r1 0
O_0_w3_r2 1.2234882392491932e+02
O_0_w3_r3 0
O_0_w4_r0 5.9827074189630622e+01
O_0_w4_r1 0
O_0_w4_r2 2.9534882392491932e+02
O_0_w4_r3 0
O_1_w0_r0 0
O_1_w0_r1 0
O_1_w0_r2 0
O_1_w0_r3 0
O_1_w1_r0 0
O_1_w1_r1 0
O_1_w1_r2 0
O_1_w1_r3 0
O_1_w2_r0 218
O_1_w2_r1 0
O_1_w2_r2 249
O_1_w2_r3 0
O_1_w3_r0 2.4623451931016433e+01
O_1_w3_r1 0
O_1_w3_r2 1.2234882392491932e+02
O_1_w3_r3 0
O_1_w4_r0 5.9827074189630622e+01
O_1_w4_r1 0
O_1_w4_r2 2.9534882392491932e+02
O_1_w4_r3 0
O_2_w0_r0 0
O_2_w0_r1 0
O_2_w0_r2 0
O_2_w0_r3 0
O_2_w1_r0 0
O_2_w1_r1 0
O_2_w1_r2 0
O_2_w1_r3 0
O_2_w2_r0 225
O_2_w2_r1 0
O_2_w2_r2 190
O_2_w2_r3 0
O_2_w3_r0 2.4623451931016433e+01
O_2_w3_r1 0
O_2_w3_r2 1.2234882392491932e+02
O_2_w3_r3 0
O_2_w4_r0 5.9827074189630622e+01
O_2_w4_r1 0
O_2_w4_r2 2.9534882392491932e+02
O_2_w4_r3 0
O_3_w0_r0 0
O_3_w0_r1 0
O_3_w0_r2 0
O_3_w0_r3 0
O_3_w1_r0 0
O_3_w1_r1 0
O_3_w1_r2 0
O_3_w1_r3 0
O_3_w2_r0 187
O_3_w2_r1 0
O_3_w2_r2 250
O_3_w2_r3 0
O_3_w3_r0 2.1623451931016433e+01
O_3_w3_r1 0
O_3_w3_r2 1.2234882392491932e+02
O_3_w3_r3 0
O_3_w4_r0 5.9827074189630622e+01
O_3_w4_r1 0
O_3_w4_r2 2.9534882392491932e+02
O_3_w4_r3 0
y_w0_r0 1
y_w0_r1 0
y_w0_r2 1
y_w0_r3 0
y_w1_r0 3
y_w1_r1 1
y_w1_r2 1
y_w1_r3 0
y_w2_r0 5
y_w2_r1 0
y_w2_r2 2
y_w2_r3 0
y_w3_r0 4
y_w3_r1 3
y_w3_r2 1
y_w3_r3 0
y_w4_r0 5
y_w4_r1 0
y_w4_r2 1
y_w4_r3 0
